4097
202412066
20
392
16404
34
4194368
136
302121224
16777728
8389632
2099200
2282786819
538976256
16400
135303170
268500992
131328
1074003968
537395200
1209044994
538978304
37748800
8389632
16777728
37748992
67108866
135303170
268501248
539500544
1075052544
2147487744
